5
12
13
2
11
10
11
9
14
1
3
6
2
7
8
6
3
1
5
9
7
15
11
1
4
2
18
9
13
19
20
22
3
20
6
14
2
3
15
9
14
15
14
19
8
9
12
5
6
18
13
1
13
4
17
7
16
8
7
11
1
14
16
11
12
4
19
4
16
14
10
13
10
16
20
5
21
10
10
12
19
18
1
16
5
19
10
8
14
13
2
12
18
6
21
17
20
13
8
4
7
7
9
17
21
2
3
11
15
5
18
15
8
6
7
16
22
15
19
19
3
17
8
10
12
